30439
1 1 0 0 1 1 0 1 1 1 0 1 1 0 1 0 0 1 1 0 0 0 0 0 0 0 0 1 1 1 
18 28 0 27 5 12 5 27 18 28 4 28 8 1 28 18 1 8 27 0 18 27 5 27 14 18 27 28 29 5 4 4 4 27 27 12 8 8 27 0 18 9 12 4 8 14 8 0 14 14 0 27 0 0 8 12 11 9 18 7 29 0 7 8 8 11 5 14 28 12 18 12 4 9 5 5 8 5 8 27 5 0 9 7 29 8 4 5 27 7 28 12 7 11 0 1 11 12 0 28 28 5 12 18 4 0 4 27 27 1 14 4 27 12 12 8 28 7 17 8 9 11 17 14 9 27 5 11 14 17 28 0 11 8 1 9 1 8 28 14 12 27 11 11 11 5 27 5 27 11 27 17 5 0 8 11 5 5 8 1 1 27 14 0 5 27 5 4 1 0 1 8 28 14 4 0 0 14 29 14 5 5 0 28 12 8 28 5 0 0 5 0 12 4 7 12 7 5 14 14 
